/*********************************************
 * OPL 12.10.0.0 Data
 * Author: tt_sina
 * Creation Date: Nov 4, 2021 at 9:58:44 PM
 *********************************************/
n=12;
m=6;
 p=[5 4 17 7 8 10 8 3 6 15 9 10];
 c=[2.3 1.5 1.9 3.1 2.7 2];
 
 
 